NAME : ClusterId_52 
COMMENT : (Gillet and Johnson) 
TYPE : CVRP 
DIMENSION : 19 
EDGE_WEIGHT_TYPE : EUC_2D 
CAPACITY : 160 
NODE_COORD_SECTION 
52 30 40 
24 8 52 
5 40 30 
43 5 64 
6 21 47 
48 25 55 
27 30 48 
8 31 62 
26 27 68 
22 42 57 
38 45 35 
11 42 41 
1 37 52 
7 17 63 
23 16 57 
32 38 46 
12 31 32 
47 25 32 
46 32 39 
DEMAND_SECTION 
52 2330
24 10
5 21
43 11
6 15
48 17
27 15
8 23
26 7
22 8
38 15
11 19
1 7
7 19
23 16
32 12
12 29
47 25
46 5
DEPOT_SECTION 
52
 -1
EOF